% Auto-generated by scripts/generate_dzn.py
% problem_type   = regex
% instance       = regex_56
% source_json    = instances_json/2_high_blowup/regex_56.json
% blowup         = 20.27906976744186
% representation = NFA

mode = 1;

var_count = 41;
n_constraints = 2;
Q = 28;
S = 3;
q0 = [1, 1];
F = [{15}, {28}];
weights = [5, 6, 3, 6, 6, 3, 2, 9, 6, 1, 1, 7, 10, 4, 6, 7, 2, 7, 5, 9, 6, 8, 10, 1, 5, 6, 2, 6, 4, 8, 1, 8, 2, 2, 5, 7, 9, 6, 5, 7, 3];
d_dfa = array3d(1..2, 1..28, 1..3, [
  % k = 1
    0, 0, 0,
    0, 0, 0,
    0, 0, 0,
    0, 0, 0,
    0, 0, 0,
    0, 0, 0,
    0, 0, 0,
    0, 0, 0,
    0, 0, 0,
    0, 0, 0,
    0, 0, 0,
    0, 0, 0,
    0, 0, 0,
    0, 0, 0,
    0, 0, 0,
    0, 0, 0,
    0, 0, 0,
    0, 0, 0,
    0, 0, 0,
    0, 0, 0,
    0, 0, 0,
    0, 0, 0,
    0, 0, 0,
    0, 0, 0,
    0, 0, 0,
    0, 0, 0,
    0, 0, 0,
    0, 0, 0,

  % k = 2
    0, 0, 0,
    0, 0, 0,
    0, 0, 0,
    0, 0, 0,
    0, 0, 0,
    0, 0, 0,
    0, 0, 0,
    0, 0, 0,
    0, 0, 0,
    0, 0, 0,
    0, 0, 0,
    0, 0, 0,
    0, 0, 0,
    0, 0, 0,
    0, 0, 0,
    0, 0, 0,
    0, 0, 0,
    0, 0, 0,
    0, 0, 0,
    0, 0, 0,
    0, 0, 0,
    0, 0, 0,
    0, 0, 0,
    0, 0, 0,
    0, 0, 0,
    0, 0, 0,
    0, 0, 0,
    0, 0, 0
]);
d_nfa = array3d(1..2, 1..28, 1..3, [
  % k = 1
    {1}, {1, 2}, {1},
    {3}, {}, {},
    {}, {4}, {},
    {5}, {5}, {5},
    {6}, {6}, {6},
    {7}, {7}, {7},
    {8}, {8}, {8},
    {9}, {9}, {9},
    {10}, {10}, {10},
    {11}, {11}, {11},
    {12}, {12}, {12},
    {13}, {13}, {13},
    {14}, {14}, {14},
    {15}, {15}, {15},
    {}, {}, {},
    {}, {}, {},
    {}, {}, {},
    {}, {}, {},
    {}, {}, {},
    {}, {}, {},
    {}, {}, {},
    {}, {}, {},
    {}, {}, {},
    {}, {}, {},
    {}, {}, {},
    {}, {}, {},
    {}, {}, {},
    {}, {}, {},

  % k = 2
    {2}, {1}, {1},
    {3}, {2}, {2},
    {4}, {3}, {3},
    {5}, {4}, {4},
    {6}, {5}, {5},
    {7}, {6}, {6},
    {8}, {7}, {7},
    {9}, {8}, {8},
    {10}, {9}, {9},
    {11}, {10}, {10},
    {12}, {11}, {11},
    {13}, {12}, {12},
    {14}, {13}, {13},
    {15}, {14}, {14},
    {16}, {15}, {15},
    {17}, {16}, {16},
    {18}, {17}, {17},
    {19}, {18}, {18},
    {20}, {19}, {19},
    {21}, {20}, {20},
    {22}, {21}, {21},
    {23}, {22}, {22},
    {24}, {23}, {23},
    {25}, {24}, {24},
    {26}, {25}, {25},
    {27}, {26}, {26},
    {28}, {27}, {27},
    {}, {28}, {28}
]);
